problems/VanDerWaerdenNumbers/VanDerWaerden-models/noch/O2/lingeling/model_3-k3l4n32-solution000001.solution
language Essence 1.3

letting p be
        partition({1, 5, 6, 7, 9, 15, 18, 20, 24, 26, 27, 28}, {2, 4, 10, 11, 17, 19, 21, 22, 25, 31, 32},
                  {3, 8, 12, 13, 14, 16, 23, 29, 30})
